(declare-const a1 Int)
(declare-const a2 Int)
(declare-const d1 Bool)
(declare-const d2 Bool)
(declare-const s1 Int)
(declare-const s2 Int)
(declare-const s3 Int)
(assert (>= a1 0))
(assert (>= a2 0))
(assert (>= s1 0))
(assert (>= s2 0))
(assert (>= s3 0))
(assert
 (exists
  ((p1 Int) (p2 Bool) (p1_1 Int) (p2_1 Bool) (a Int) (a_1 Int) (c Int)
   (p1_2 Int) (p2_2 Bool) (p1_3 Int) (p2_3 Bool) (a_2 Int) (a_3 Int)
   (c_1 Int) (p1_4 Int) (p2_4 Bool) (p1_5 Int) (p2_5 Bool) (a_4 Int)
   (a_5 Int) (c_2 Int) (p1_6 Int) (p2_6 Bool) (p1_7 Int) (p2_7 Bool)
   (a_6 Int) (a_7 Int) (c_3 Int) (p1_8 Int) (p2_8 Bool) (p1_9 Int)
   (p2_9 Bool) (a_8 Int) (a_9 Int) (c_4 Int) (p1_10 Int) (p2_10 Bool)
   (p1_11 Int) (p2_11 Bool) (a_10 Int) (a_11 Int) (c_5 Int) (p1_12 Int)
   (p2_12 Bool) (p1_13 Int) (p2_13 Bool) (a_12 Int) (a_13 Int) (c_6 Int)
   (p1_14 Int) (p2_14 Bool) (p1_15 Int) (p2_15 Bool) (a_14 Int) (a_15 Int)
   (c_7 Int) (p1_16 Int) (p2_16 Bool) (p1_17 Int) (p2_17 Bool) (a_16 Int)
   (a_17 Int) (c_8 Int))
  (and (>= p1 0) (>= p1_1 0) (>= a 0) (>= a_1 0) (>= c 0) (>= p1_2 0)
   (>= p1_3 0) (>= a_2 0) (>= a_3 0) (>= c_1 0) (>= p1_4 0) (>= p1_5 0)
   (>= a_4 0) (>= a_5 0) (>= c_2 0) (>= p1_6 0) (>= p1_7 0) (>= a_6 0)
   (>= a_7 0) (>= c_3 0) (>= p1_8 0) (>= p1_9 0) (>= a_8 0) (>= a_9 0)
   (>= c_4 0) (>= p1_10 0) (>= p1_11 0) (>= a_10 0) (>= a_11 0) (>= c_5 0)
   (>= p1_12 0) (>= p1_13 0) (>= a_12 0) (>= a_13 0) (>= c_6 0) (>= p1_14 0)
   (>= p1_15 0) (>= a_14 0) (>= a_15 0) (>= c_7 0) (>= p1_16 0) (>= p1_17 0)
   (>= a_16 0) (>= a_17 0) (>= c_8 0)
   (and (<= p1_1 4) (<= p1 4) (<= p1_3 4) (<= p1_2 4) (<= p1_5 4) (<= p1_4 4)
    (<= p1_7 4) (<= p1_6 4) (<= p1_9 4) (<= p1_8 4) (<= p1_11 4) (<= p1_10 4)
    (<= p1_13 4) (<= p1_12 4) (<= p1_15 4) (<= p1_14 4) (<= p1_17 4)
    (<= p1_16 4) (= a_16 (+ 0 (ite (= 0 1) 1 0) 1))
    (= c_8 (+ 0 (ite (= 0 3) 1 0) (ite (= 1 3) 1 0)))
    (= a_17 (+ 0 (ite (= 0 2) 1 0) (ite (= 1 2) 1 0)))
    (=> (= 0 1) (and (= p1_16 4) p2_16)) (=> (= 0 2) (and (= p1_16 3) p2_16))
    (=> (= 0 3) (and (= p1_16 4) p2_16)) (or (= p1_16 1) (= p1_16 2)) p2_16
    (=> (= p1_16 1) (<= 0 0)) (=> (= p1_16 2) (<= 0 0))
    (=> (= 0 4) (and (or (= p1_16 1) (= p1_16 3)) (not p2_16)))
    (=> (and (= 0 4) (= p1_16 1)) (<= 0 0))
    (=> (and (= 0 4) (= p1_16 3)) (<= 0 0)) (= p1_17 0) (not p2_17)
    (=> (= 1 2) (and (= p1_17 0) (not p2_17)))
    (=> (= 1 3) (and (= p1_17 2) (not p2_17)))
    (=> (= 1 0) (and (or (= p1_17 1) (= p1_17 2)) p2_17))
    (=> (and (= 1 0) (= p1_17 1)) (<= 0 0))
    (=> (and (= 1 0) (= p1_17 2)) (<= 0 0))
    (=> (= 1 4) (and (or (= p1_17 1) (= p1_17 3)) (not p2_17)))
    (=> (and (= 1 4) (= p1_17 1)) (<= 0 0))
    (=> (and (= 1 4) (= p1_17 3)) (<= 0 0))
    (= a_14 (+ a_16 (ite (= p1_16 1) 1 0) (ite (= p1_17 1) 1 0)))
    (= c_7 (+ c_8 (ite (= p1_16 3) 1 0) (ite (= p1_17 3) 1 0)))
    (= a_15 (+ a_17 (ite (= p1_16 2) 1 0) (ite (= p1_17 2) 1 0)))
    (=> (= p1_16 1) (and (= p1_14 (ite p2_16 4 0)) (iff p2_14 p2_16)))
    (=> (= p1_16 2) (and (= p1_14 (ite p2_16 3 0)) (iff p2_14 p2_16)))
    (=> (= p1_16 3) (and (= p1_14 (ite p2_16 4 2)) (iff p2_14 p2_16)))
    (=> (= p1_16 0) (and (or (= p1_14 1) (= p1_14 2)) p2_14))
    (=> (and (= p1_16 0) (= p1_14 1)) (<= a_17 a_16))
    (=> (and (= p1_16 0) (= p1_14 2)) (<= a_16 a_17))
    (=> (= p1_16 4) (and (or (= p1_14 1) (= p1_14 3)) (not p2_14)))
    (=> (and (= p1_16 4) (= p1_14 1)) (<= c_8 a_16))
    (=> (and (= p1_16 4) (= p1_14 3)) (<= a_16 c_8))
    (=> (= p1_17 1) (and (= p1_15 (ite p2_17 4 0)) (iff p2_15 p2_17)))
    (=> (= p1_17 2) (and (= p1_15 (ite p2_17 3 0)) (iff p2_15 p2_17)))
    (=> (= p1_17 3) (and (= p1_15 (ite p2_17 4 2)) (iff p2_15 p2_17)))
    (=> (= p1_17 0) (and (or (= p1_15 1) (= p1_15 2)) p2_15))
    (=> (and (= p1_17 0) (= p1_15 1)) (<= a_17 a_16))
    (=> (and (= p1_17 0) (= p1_15 2)) (<= a_16 a_17))
    (=> (= p1_17 4) (and (or (= p1_15 1) (= p1_15 3)) (not p2_15)))
    (=> (and (= p1_17 4) (= p1_15 1)) (<= c_8 a_16))
    (=> (and (= p1_17 4) (= p1_15 3)) (<= a_16 c_8))
    (= a_12 (+ a_14 (ite (= p1_14 1) 1 0) (ite (= p1_15 1) 1 0)))
    (= c_6 (+ c_7 (ite (= p1_14 3) 1 0) (ite (= p1_15 3) 1 0)))
    (= a_13 (+ a_15 (ite (= p1_14 2) 1 0) (ite (= p1_15 2) 1 0)))
    (=> (= p1_14 1) (and (= p1_12 (ite p2_14 4 0)) (iff p2_12 p2_14)))
    (=> (= p1_14 2) (and (= p1_12 (ite p2_14 3 0)) (iff p2_12 p2_14)))
    (=> (= p1_14 3) (and (= p1_12 (ite p2_14 4 2)) (iff p2_12 p2_14)))
    (=> (= p1_14 0) (and (or (= p1_12 1) (= p1_12 2)) p2_12))
    (=> (and (= p1_14 0) (= p1_12 1)) (<= a_15 a_14))
    (=> (and (= p1_14 0) (= p1_12 2)) (<= a_14 a_15))
    (=> (= p1_14 4) (and (or (= p1_12 1) (= p1_12 3)) (not p2_12)))
    (=> (and (= p1_14 4) (= p1_12 1)) (<= c_7 a_14))
    (=> (and (= p1_14 4) (= p1_12 3)) (<= a_14 c_7))
    (=> (= p1_15 1) (and (= p1_13 (ite p2_15 4 0)) (iff p2_13 p2_15)))
    (=> (= p1_15 2) (and (= p1_13 (ite p2_15 3 0)) (iff p2_13 p2_15)))
    (=> (= p1_15 3) (and (= p1_13 (ite p2_15 4 2)) (iff p2_13 p2_15)))
    (=> (= p1_15 0) (and (or (= p1_13 1) (= p1_13 2)) p2_13))
    (=> (and (= p1_15 0) (= p1_13 1)) (<= a_15 a_14))
    (=> (and (= p1_15 0) (= p1_13 2)) (<= a_14 a_15))
    (=> (= p1_15 4) (and (or (= p1_13 1) (= p1_13 3)) (not p2_13)))
    (=> (and (= p1_15 4) (= p1_13 1)) (<= c_7 a_14))
    (=> (and (= p1_15 4) (= p1_13 3)) (<= a_14 c_7))
    (= a_10 (+ a_12 (ite (= p1_12 1) 1 0) (ite (= p1_13 1) 1 0)))
    (= c_5 (+ c_6 (ite (= p1_12 3) 1 0) (ite (= p1_13 3) 1 0)))
    (= a_11 (+ a_13 (ite (= p1_12 2) 1 0) (ite (= p1_13 2) 1 0)))
    (=> (= p1_12 1) (and (= p1_10 (ite p2_12 4 0)) (iff p2_10 p2_12)))
    (=> (= p1_12 2) (and (= p1_10 (ite p2_12 3 0)) (iff p2_10 p2_12)))
    (=> (= p1_12 3) (and (= p1_10 (ite p2_12 4 2)) (iff p2_10 p2_12)))
    (=> (= p1_12 0) (and (or (= p1_10 1) (= p1_10 2)) p2_10))
    (=> (and (= p1_12 0) (= p1_10 1)) (<= a_13 a_12))
    (=> (and (= p1_12 0) (= p1_10 2)) (<= a_12 a_13))
    (=> (= p1_12 4) (and (or (= p1_10 1) (= p1_10 3)) (not p2_10)))
    (=> (and (= p1_12 4) (= p1_10 1)) (<= c_6 a_12))
    (=> (and (= p1_12 4) (= p1_10 3)) (<= a_12 c_6))
    (=> (= p1_13 1) (and (= p1_11 (ite p2_13 4 0)) (iff p2_11 p2_13)))
    (=> (= p1_13 2) (and (= p1_11 (ite p2_13 3 0)) (iff p2_11 p2_13)))
    (=> (= p1_13 3) (and (= p1_11 (ite p2_13 4 2)) (iff p2_11 p2_13)))
    (=> (= p1_13 0) (and (or (= p1_11 1) (= p1_11 2)) p2_11))
    (=> (and (= p1_13 0) (= p1_11 1)) (<= a_13 a_12))
    (=> (and (= p1_13 0) (= p1_11 2)) (<= a_12 a_13))
    (=> (= p1_13 4) (and (or (= p1_11 1) (= p1_11 3)) (not p2_11)))
    (=> (and (= p1_13 4) (= p1_11 1)) (<= c_6 a_12))
    (=> (and (= p1_13 4) (= p1_11 3)) (<= a_12 c_6))
    (= a_8 (+ a_10 (ite (= p1_10 1) 1 0) (ite (= p1_11 1) 1 0)))
    (= c_4 (+ c_5 (ite (= p1_10 3) 1 0) (ite (= p1_11 3) 1 0)))
    (= a_9 (+ a_11 (ite (= p1_10 2) 1 0) (ite (= p1_11 2) 1 0)))
    (=> (= p1_10 1) (and (= p1_8 (ite p2_10 4 0)) (iff p2_8 p2_10)))
    (=> (= p1_10 2) (and (= p1_8 (ite p2_10 3 0)) (iff p2_8 p2_10)))
    (=> (= p1_10 3) (and (= p1_8 (ite p2_10 4 2)) (iff p2_8 p2_10)))
    (=> (= p1_10 0) (and (or (= p1_8 1) (= p1_8 2)) p2_8))
    (=> (and (= p1_10 0) (= p1_8 1)) (<= a_11 a_10))
    (=> (and (= p1_10 0) (= p1_8 2)) (<= a_10 a_11))
    (=> (= p1_10 4) (and (or (= p1_8 1) (= p1_8 3)) (not p2_8)))
    (=> (and (= p1_10 4) (= p1_8 1)) (<= c_5 a_10))
    (=> (and (= p1_10 4) (= p1_8 3)) (<= a_10 c_5))
    (=> (= p1_11 1) (and (= p1_9 (ite p2_11 4 0)) (iff p2_9 p2_11)))
    (=> (= p1_11 2) (and (= p1_9 (ite p2_11 3 0)) (iff p2_9 p2_11)))
    (=> (= p1_11 3) (and (= p1_9 (ite p2_11 4 2)) (iff p2_9 p2_11)))
    (=> (= p1_11 0) (and (or (= p1_9 1) (= p1_9 2)) p2_9))
    (=> (and (= p1_11 0) (= p1_9 1)) (<= a_11 a_10))
    (=> (and (= p1_11 0) (= p1_9 2)) (<= a_10 a_11))
    (=> (= p1_11 4) (and (or (= p1_9 1) (= p1_9 3)) (not p2_9)))
    (=> (and (= p1_11 4) (= p1_9 1)) (<= c_5 a_10))
    (=> (and (= p1_11 4) (= p1_9 3)) (<= a_10 c_5))
    (= a_6 (+ a_8 (ite (= p1_8 1) 1 0) (ite (= p1_9 1) 1 0)))
    (= c_3 (+ c_4 (ite (= p1_8 3) 1 0) (ite (= p1_9 3) 1 0)))
    (= a_7 (+ a_9 (ite (= p1_8 2) 1 0) (ite (= p1_9 2) 1 0)))
    (=> (= p1_8 1) (and (= p1_6 (ite p2_8 4 0)) (iff p2_6 p2_8)))
    (=> (= p1_8 2) (and (= p1_6 (ite p2_8 3 0)) (iff p2_6 p2_8)))
    (=> (= p1_8 3) (and (= p1_6 (ite p2_8 4 2)) (iff p2_6 p2_8)))
    (=> (= p1_8 0) (and (or (= p1_6 1) (= p1_6 2)) p2_6))
    (=> (and (= p1_8 0) (= p1_6 1)) (<= a_9 a_8))
    (=> (and (= p1_8 0) (= p1_6 2)) (<= a_8 a_9))
    (=> (= p1_8 4) (and (or (= p1_6 1) (= p1_6 3)) (not p2_6)))
    (=> (and (= p1_8 4) (= p1_6 1)) (<= c_4 a_8))
    (=> (and (= p1_8 4) (= p1_6 3)) (<= a_8 c_4))
    (=> (= p1_9 1) (and (= p1_7 (ite p2_9 4 0)) (iff p2_7 p2_9)))
    (=> (= p1_9 2) (and (= p1_7 (ite p2_9 3 0)) (iff p2_7 p2_9)))
    (=> (= p1_9 3) (and (= p1_7 (ite p2_9 4 2)) (iff p2_7 p2_9)))
    (=> (= p1_9 0) (and (or (= p1_7 1) (= p1_7 2)) p2_7))
    (=> (and (= p1_9 0) (= p1_7 1)) (<= a_9 a_8))
    (=> (and (= p1_9 0) (= p1_7 2)) (<= a_8 a_9))
    (=> (= p1_9 4) (and (or (= p1_7 1) (= p1_7 3)) (not p2_7)))
    (=> (and (= p1_9 4) (= p1_7 1)) (<= c_4 a_8))
    (=> (and (= p1_9 4) (= p1_7 3)) (<= a_8 c_4))
    (= a_4 (+ a_6 (ite (= p1_6 1) 1 0) (ite (= p1_7 1) 1 0)))
    (= c_2 (+ c_3 (ite (= p1_6 3) 1 0) (ite (= p1_7 3) 1 0)))
    (= a_5 (+ a_7 (ite (= p1_6 2) 1 0) (ite (= p1_7 2) 1 0)))
    (=> (= p1_6 1) (and (= p1_4 (ite p2_6 4 0)) (iff p2_4 p2_6)))
    (=> (= p1_6 2) (and (= p1_4 (ite p2_6 3 0)) (iff p2_4 p2_6)))
    (=> (= p1_6 3) (and (= p1_4 (ite p2_6 4 2)) (iff p2_4 p2_6)))
    (=> (= p1_6 0) (and (or (= p1_4 1) (= p1_4 2)) p2_4))
    (=> (and (= p1_6 0) (= p1_4 1)) (<= a_7 a_6))
    (=> (and (= p1_6 0) (= p1_4 2)) (<= a_6 a_7))
    (=> (= p1_6 4) (and (or (= p1_4 1) (= p1_4 3)) (not p2_4)))
    (=> (and (= p1_6 4) (= p1_4 1)) (<= c_3 a_6))
    (=> (and (= p1_6 4) (= p1_4 3)) (<= a_6 c_3))
    (=> (= p1_7 1) (and (= p1_5 (ite p2_7 4 0)) (iff p2_5 p2_7)))
    (=> (= p1_7 2) (and (= p1_5 (ite p2_7 3 0)) (iff p2_5 p2_7)))
    (=> (= p1_7 3) (and (= p1_5 (ite p2_7 4 2)) (iff p2_5 p2_7)))
    (=> (= p1_7 0) (and (or (= p1_5 1) (= p1_5 2)) p2_5))
    (=> (and (= p1_7 0) (= p1_5 1)) (<= a_7 a_6))
    (=> (and (= p1_7 0) (= p1_5 2)) (<= a_6 a_7))
    (=> (= p1_7 4) (and (or (= p1_5 1) (= p1_5 3)) (not p2_5)))
    (=> (and (= p1_7 4) (= p1_5 1)) (<= c_3 a_6))
    (=> (and (= p1_7 4) (= p1_5 3)) (<= a_6 c_3))
    (= a_2 (+ a_4 (ite (= p1_4 1) 1 0) (ite (= p1_5 1) 1 0)))
    (= c_1 (+ c_2 (ite (= p1_4 3) 1 0) (ite (= p1_5 3) 1 0)))
    (= a_3 (+ a_5 (ite (= p1_4 2) 1 0) (ite (= p1_5 2) 1 0)))
    (=> (= p1_4 1) (and (= p1_2 (ite p2_4 4 0)) (iff p2_2 p2_4)))
    (=> (= p1_4 2) (and (= p1_2 (ite p2_4 3 0)) (iff p2_2 p2_4)))
    (=> (= p1_4 3) (and (= p1_2 (ite p2_4 4 2)) (iff p2_2 p2_4)))
    (=> (= p1_4 0) (and (or (= p1_2 1) (= p1_2 2)) p2_2))
    (=> (and (= p1_4 0) (= p1_2 1)) (<= a_5 a_4))
    (=> (and (= p1_4 0) (= p1_2 2)) (<= a_4 a_5))
    (=> (= p1_4 4) (and (or (= p1_2 1) (= p1_2 3)) (not p2_2)))
    (=> (and (= p1_4 4) (= p1_2 1)) (<= c_2 a_4))
    (=> (and (= p1_4 4) (= p1_2 3)) (<= a_4 c_2))
    (=> (= p1_5 1) (and (= p1_3 (ite p2_5 4 0)) (iff p2_3 p2_5)))
    (=> (= p1_5 2) (and (= p1_3 (ite p2_5 3 0)) (iff p2_3 p2_5)))
    (=> (= p1_5 3) (and (= p1_3 (ite p2_5 4 2)) (iff p2_3 p2_5)))
    (=> (= p1_5 0) (and (or (= p1_3 1) (= p1_3 2)) p2_3))
    (=> (and (= p1_5 0) (= p1_3 1)) (<= a_5 a_4))
    (=> (and (= p1_5 0) (= p1_3 2)) (<= a_4 a_5))
    (=> (= p1_5 4) (and (or (= p1_3 1) (= p1_3 3)) (not p2_3)))
    (=> (and (= p1_5 4) (= p1_3 1)) (<= c_2 a_4))
    (=> (and (= p1_5 4) (= p1_3 3)) (<= a_4 c_2))
    (= a (+ a_2 (ite (= p1_2 1) 1 0) (ite (= p1_3 1) 1 0)))
    (= c (+ c_1 (ite (= p1_2 3) 1 0) (ite (= p1_3 3) 1 0)))
    (= a_1 (+ a_3 (ite (= p1_2 2) 1 0) (ite (= p1_3 2) 1 0)))
    (=> (= p1_2 1) (and (= p1 (ite p2_2 4 0)) (iff p2 p2_2)))
    (=> (= p1_2 2) (and (= p1 (ite p2_2 3 0)) (iff p2 p2_2)))
    (=> (= p1_2 3) (and (= p1 (ite p2_2 4 2)) (iff p2 p2_2)))
    (=> (= p1_2 0) (and (or (= p1 1) (= p1 2)) p2))
    (=> (and (= p1_2 0) (= p1 1)) (<= a_3 a_2))
    (=> (and (= p1_2 0) (= p1 2)) (<= a_2 a_3))
    (=> (= p1_2 4) (and (or (= p1 1) (= p1 3)) (not p2)))
    (=> (and (= p1_2 4) (= p1 1)) (<= c_1 a_2))
    (=> (and (= p1_2 4) (= p1 3)) (<= a_2 c_1))
    (=> (= p1_3 1) (and (= p1_1 (ite p2_3 4 0)) (iff p2_1 p2_3)))
    (=> (= p1_3 2) (and (= p1_1 (ite p2_3 3 0)) (iff p2_1 p2_3)))
    (=> (= p1_3 3) (and (= p1_1 (ite p2_3 4 2)) (iff p2_1 p2_3)))
    (=> (= p1_3 0) (and (or (= p1_1 1) (= p1_1 2)) p2_1))
    (=> (and (= p1_3 0) (= p1_1 1)) (<= a_3 a_2))
    (=> (and (= p1_3 0) (= p1_1 2)) (<= a_2 a_3))
    (=> (= p1_3 4) (and (or (= p1_1 1) (= p1_1 3)) (not p2_1)))
    (=> (and (= p1_3 4) (= p1_1 1)) (<= c_1 a_2))
    (=> (and (= p1_3 4) (= p1_1 3)) (<= a_2 c_1))
    (= s1 (+ a (ite (= p1 1) 1 0) (ite (= p1_1 1) 1 0)))
    (= s3 (+ c (ite (= p1 3) 1 0) (ite (= p1_1 3) 1 0)))
    (= s2 (+ a_1 (ite (= p1 2) 1 0) (ite (= p1_1 2) 1 0)))
    (=> (= p1 1) (and (= a1 (ite p2 4 0)) (iff d1 p2)))
    (=> (= p1 2) (and (= a1 (ite p2 3 0)) (iff d1 p2)))
    (=> (= p1 3) (and (= a1 (ite p2 4 2)) (iff d1 p2)))
    (=> (= p1 0) (and (or (= a1 1) (= a1 2)) d1))
    (=> (and (= p1 0) (= a1 1)) (<= a_1 a))
    (=> (and (= p1 0) (= a1 2)) (<= a a_1))
    (=> (= p1 4) (and (or (= a1 1) (= a1 3)) (not d1)))
    (=> (and (= p1 4) (= a1 1)) (<= c a))
    (=> (and (= p1 4) (= a1 3)) (<= a c))
    (=> (= p1_1 1) (and (= a2 (ite p2_1 4 0)) (iff d2 p2_1)))
    (=> (= p1_1 2) (and (= a2 (ite p2_1 3 0)) (iff d2 p2_1)))
    (=> (= p1_1 3) (and (= a2 (ite p2_1 4 2)) (iff d2 p2_1)))
    (=> (= p1_1 0) (and (or (= a2 1) (= a2 2)) d2))
    (=> (and (= p1_1 0) (= a2 1)) (<= a_1 a))
    (=> (and (= p1_1 0) (= a2 2)) (<= a a_1))
    (=> (= p1_1 4) (and (or (= a2 1) (= a2 3)) (not d2)))
    (=> (and (= p1_1 4) (= a2 1)) (<= c a))
    (=> (and (= p1_1 4) (= a2 3)) (<= a c))))))
(check-sat)
(get-value (a1 a2 d1 d2 s1 s2 s3))
